964262
0,36,73,69,31,12,62,59,30,61,92,48,9,55,17,68,74,5,40,76,29,95,20,19,8,32,56,46,94,72,6,65,3,44,85,80,13,38,91,83,21,28,50,24,77,39,78,25,93,16,11,18,58,89,53,97,27,45,70,42,23,22,10,33,51,64,66,57,81,15,14,60,82,86,75,37,87,49,96,41,34,26,1,2,63,4,84,88,7,52,90,43,54,71,35,98,67,79,47,0